20
1 10
1 14
2 5
2 14
2 16
3 5
3 6
3 7
3 10
3 12
3 13
3 14
3 15
3 17
4 12
4 13
4 17
5 8
5 11
6 10
6 11
6 17
6 19
6 20
7 8
7 10
7 16
7 20
8 10
8 13
8 17
9 12
9 14
9 16
9 18
10 11
10 13
10 16
10 17
11 13
11 17
11 20
12 16
12 17
13 15
13 16
13 19
14 15
15 16
15 18
15 20
16 19
16 20
17 18
18 19
18 20
19 20
